NAME          markshare_4_0
ROWS
 E  C1_
 E  C2_
 E  C3_
 E  C4_
 N  MINIMIZE
COLUMNS
    s1        MINIMIZE             1   C1_                  1
    s2        MINIMIZE             1   C2_                  1
    s3        MINIMIZE             1   C3_                  1
    s4        MINIMIZE             1   C4_                  1
    MARK0001  'MARKER'                 'INTORG'
    x1        C4_                  2   C3_                 46
    x1        C2_                 93   C1_                 17
    x2        C4_                 77   C3_                 63
    x2        C2_                 44   C1_                 75
    x3        C4_                 73   C3_                 13
    x3        C2_                 79   C1_                  9
    x4        C4_                 59   C3_                 97
    x4        C2_                 12   C1_                 87
    x5        C4_                 43   C3_                 14
    x5        C2_                  8   C1_                 58
    x6        C4_                 64   C3_                 45
    x6        C2_                 95   C1_                 79
    x7        C4_                 75   C3_                 32
    x7        C2_                  2   C1_                 69
    x8        C4_                  6   C3_                 96
    x8        C2_                 15   C1_                 37
    x9        C4_                  5   C3_                 36
    x9        C2_                 38   C1_                 88
    x10       C4_                 78   C3_                 40
    x10       C2_                 15   C1_                 75
    x11       C4_                 71   C3_                 10
    x11       C2_                 53   C1_                 45
    x12       C4_                 12   C3_                 96
    x12       C2_                 88   C1_                 35
    x13       C4_                 30   C3_                 99
    x13       C2_                 43   C1_                 73
    x14       C4_                  7   C3_                 58
    x14       C2_                 26   C1_                 26
    x15       C4_                 69   C3_                 87
    x15       C2_                 31   C1_                 39
    x16       C4_                 36   C3_                 15
    x16       C2_                 77   C1_                 78
    x17       C4_                 73   C3_                 91
    x17       C2_                 10   C1_                 85
    x18       C4_                 19   C3_                 65
    x18       C2_                 77   C1_                 58
    x19       C4_                 15   C3_                  6
    x19       C2_                 71   C1_                 72
    x20       C4_                 16   C3_                 96
    x20       C2_                 22   C1_                  8
    x21       C4_                 84   C3_                 97
    x21       C2_                 76   C1_                 46
    x22       C4_                 55   C3_                 79
    x22       C2_                 41   C1_                 11
    x23       C4_                 32   C3_                 81
    x23       C2_                 65   C1_                 55
    x24       C4_                 53   C3_                 57
    x24       C2_                 93   C1_                 39
    x25       C4_                 43   C3_                 28
    x25       C2_                 50   C1_                 57
    x26       C4_                 21   C3_                 97
    x26       C2_                 69   C1_                 96
    x27       C4_                 73   C3_                 58
    x27       C2_                 44   C1_                 87
    x28       C3_                 44   C2_                 61
    x28       C1_                 16
    x29       C4_                 59   C3_                 37
    x29       C2_                 58   C1_                 27
    x30       C4_                 48   C3_                 93
    x30       C2_                 63   C1_                 26
    MARK0001  'MARKER'                 'INTEND'
RHS
    RHS       C1_                786   C2_                759
    RHS       C3_                888   C4_                649
BOUNDS
 UP bnd       x1                   1
 UP bnd       x2                   1
 UP bnd       x3                   1
 UP bnd       x4                   1
 UP bnd       x5                   1
 UP bnd       x6                   1
 UP bnd       x7                   1
 UP bnd       x8                   1
 UP bnd       x9                   1
 UP bnd       x10                  1
 UP bnd       x11                  1
 UP bnd       x12                  1
 UP bnd       x13                  1
 UP bnd       x14                  1
 UP bnd       x15                  1
 UP bnd       x16                  1
 UP bnd       x17                  1
 UP bnd       x18                  1
 UP bnd       x19                  1
 UP bnd       x20                  1
 UP bnd       x21                  1
 UP bnd       x22                  1
 UP bnd       x23                  1
 UP bnd       x24                  1
 UP bnd       x25                  1
 UP bnd       x26                  1
 UP bnd       x27                  1
 UP bnd       x28                  1
 UP bnd       x29                  1
 UP bnd       x30                  1
ENDATA
